c FILE /home/rafael/Documents/HappySet/MIHS/inputs/happygen/output/graph_random_k5_p0.1_v100_20241127_083633.txt
c SOURCE This is a random graph formed for the happy graph colouring problem.
c DESCRIPTION It was generated using the problem generator of Rhyd Lewis
c
c GRAPH STATS
c Seed                             = -1819185456
c Number of Nodes                  = 100
c Edge probability defined by user = 0.5
c Number of colours k              = 5
c Number of pre-assignments        = 10
c Actual density                   = 0.488687
c 
c The degrees of nodes 1 to 100, respectively, are as follows 
c [62, 59, 59, 58, 58, 56, 56, 56, 56, 55, 54, 54, 54, 54, 54, 54, 54, 53, 53, 53, 53, 52, 52, 52, 52, 52, 
c  51, 51, 51, 51, 51, 51, 50, 50, 50, 50, 50, 50, 50, 50, 50, 50, 49, 49, 49, 49, 49, 49, 49, 49, 49, 
c  48, 48, 48, 48, 48, 48, 48, 47, 47, 47, 47, 47, 47, 47, 46, 46, 46, 46, 46, 45, 45, 45, 44, 44, 44, 
c  44, 44, 44, 44, 44, 43, 43, 43, 43, 43, 43, 43, 42, 42, 42, 42, 41, 41, 41, 40, 39, 39, 38, 36] 
c  
p edge 100 2419 5
e 1 2
e 1 3
e 1 4
e 1 5
e 1 8
e 1 10
e 1 11
e 1 13
e 1 15
e 1 16
e 1 17
e 1 18
e 1 19
e 1 20
e 1 21
e 1 22
e 1 24
e 1 25
e 1 26
e 1 28
e 1 30
e 1 31
e 1 33
e 1 35
e 1 37
e 1 41
e 1 43
e 1 44
e 1 45
e 1 46
e 1 49
e 1 50
e 1 52
e 1 53
e 1 54
e 1 58
e 1 59
e 1 61
e 1 62
e 1 63
e 1 65
e 1 69
e 1 70
e 1 71
e 1 72
e 1 73
e 1 75
e 1 77
e 1 78
e 1 79
e 1 80
e 1 82
e 1 83
e 1 84
e 1 89
e 1 90
e 1 92
e 1 93
e 1 94
e 1 98
e 1 99
e 1 100
e 2 5
e 2 6
e 2 7
e 2 9
e 2 10
e 2 11
e 2 14
e 2 15
e 2 18
e 2 19
e 2 20
e 2 21
e 2 22
e 2 24
e 2 28
e 2 31
e 2 32
e 2 34
e 2 35
e 2 37
e 2 39
e 2 40
e 2 41
e 2 42
e 2 43
e 2 44
e 2 45
e 2 46
e 2 47
e 2 49
e 2 50
e 2 51
e 2 52
e 2 54
e 2 56
e 2 58
e 2 59
e 2 60
e 2 62
e 2 66
e 2 67
e 2 68
e 2 70
e 2 72
e 2 73
e 2 75
e 2 78
e 2 81
e 2 82
e 2 84
e 2 85
e 2 86
e 2 89
e 2 90
e 2 92
e 2 93
e 2 97
e 2 98
e 3 4
e 3 5
e 3 6
e 3 9
e 3 11
e 3 13
e 3 15
e 3 16
e 3 17
e 3 18
e 3 19
e 3 20
e 3 21
e 3 22
e 3 24
e 3 27
e 3 28
e 3 31
e 3 32
e 3 35
e 3 36
e 3 37
e 3 38
e 3 39
e 3 40
e 3 42
e 3 44
e 3 45
e 3 48
e 3 51
e 3 52
e 3 53
e 3 55
e 3 56
e 3 57
e 3 58
e 3 59
e 3 60
e 3 61
e 3 62
e 3 65
e 3 66
e 3 69
e 3 70
e 3 71
e 3 72
e 3 75
e 3 76
e 3 77
e 3 78
e 3 82
e 3 85
e 3 86
e 3 89
e 3 91
e 3 94
e 3 96
e 3 100
e 4 5
e 4 6
e 4 7
e 4 8
e 4 9
e 4 10
e 4 11
e 4 12
e 4 13
e 4 15
e 4 18
e 4 19
e 4 20
e 4 22
e 4 25
e 4 26
e 4 27
e 4 28
e 4 29
e 4 32
e 4 33
e 4 34
e 4 35
e 4 36
e 4 42
e 4 43
e 4 44
e 4 45
e 4 46
e 4 49
e 4 51
e 4 52
e 4 54
e 4 55
e 4 57
e 4 58
e 4 59
e 4 63
e 4 64
e 4 66
e 4 68
e 4 69
e 4 70
e 4 72
e 4 74
e 4 75
e 4 80
e 4 82
e 4 83
e 4 87
e 4 88
e 4 93
e 4 94
e 4 96
e 4 97
e 4 99
e 5 6
e 5 7
e 5 8
e 5 10
e 5 11
e 5 14
e 5 15
e 5 17
e 5 21
e 5 22
e 5 23
e 5 24
e 5 25
e 5 27
e 5 28
e 5 30
e 5 32
e 5 33
e 5 34
e 5 37
e 5 38
e 5 41
e 5 44
e 5 45
e 5 46
e 5 48
e 5 49
e 5 50
e 5 52
e 5 54
e 5 55
e 5 61
e 5 62
e 5 63
e 5 65
e 5 66
e 5 67
e 5 70
e 5 71
e 5 72
e 5 77
e 5 78
e 5 79
e 5 80
e 5 81
e 5 83
e 5 84
e 5 87
e 5 88
e 5 96
e 5 97
e 5 98
e 5 99
e 5 100
e 6 7
e 6 8
e 6 10
e 6 13
e 6 14
e 6 17
e 6 18
e 6 23
e 6 25
e 6 27
e 6 28
e 6 29
e 6 30
e 6 34
e 6 35
e 6 40
e 6 43
e 6 46
e 6 47
e 6 48
e 6 49
e 6 51
e 6 54
e 6 57
e 6 58
e 6 60
e 6 62
e 6 63
e 6 64
e 6 65
e 6 68
e 6 69
e 6 70
e 6 71
e 6 72
e 6 74
e 6 75
e 6 76
e 6 78
e 6 79
e 6 81
e 6 82
e 6 83
e 6 84
e 6 85
e 6 86
e 6 87
e 6 88
e 6 89
e 6 90
e 6 94
e 6 99
e 7 8
e 7 9
e 7 12
e 7 13
e 7 14
e 7 15
e 7 16
e 7 17
e 7 18
e 7 19
e 7 20
e 7 21
e 7 22
e 7 23
e 7 28
e 7 30
e 7 33
e 7 34
e 7 35
e 7 36
e 7 38
e 7 39
e 7 42
e 7 43
e 7 44
e 7 45
e 7 54
e 7 56
e 7 57
e 7 58
e 7 60
e 7 61
e 7 63
e 7 64
e 7 66
e 7 67
e 7 70
e 7 72
e 7 73
e 7 75
e 7 76
e 7 77
e 7 78
e 7 81
e 7 84
e 7 85
e 7 89
e 7 90
e 7 94
e 7 95
e 7 97
e 7 98
e 8 9
e 8 10
e 8 12
e 8 13
e 8 14
e 8 15
e 8 17
e 8 19
e 8 20
e 8 21
e 8 23
e 8 25
e 8 26
e 8 29
e 8 30
e 8 31
e 8 32
e 8 33
e 8 34
e 8 35
e 8 37
e 8 41
e 8 42
e 8 43
e 8 45
e 8 48
e 8 50
e 8 51
e 8 52
e 8 57
e 8 59
e 8 60
e 8 63
e 8 64
e 8 65
e 8 66
e 8 71
e 8 75
e 8 76
e 8 77
e 8 79
e 8 80
e 8 84
e 8 88
e 8 89
e 8 90
e 8 93
e 8 94
e 8 95
e 8 97
e 8 99
e 9 10
e 9 12
e 9 14
e 9 16
e 9 17
e 9 18
e 9 19
e 9 20
e 9 21
e 9 23
e 9 24
e 9 28
e 9 29
e 9 30
e 9 32
e 9 33
e 9 34
e 9 35
e 9 37
e 9 38
e 9 40
e 9 42
e 9 43
e 9 44
e 9 46
e 9 47
e 9 48
e 9 49
e 9 50
e 9 51
e 9 55
e 9 56
e 9 57
e 9 60
e 9 62
e 9 63
e 9 64
e 9 65
e 9 67
e 9 68
e 9 69
e 9 81
e 9 82
e 9 83
e 9 84
e 9 85
e 9 90
e 9 91
e 9 92
e 9 95
e 9 99
e 10 11
e 10 12
e 10 15
e 10 16
e 10 17
e 10 18
e 10 21
e 10 22
e 10 25
e 10 27
e 10 29
e 10 30
e 10 32
e 10 33
e 10 37
e 10 38
e 10 39
e 10 43
e 10 44
e 10 47
e 10 48
e 10 49
e 10 50
e 10 51
e 10 55
e 10 56
e 10 60
e 10 61
e 10 62
e 10 65
e 10 67
e 10 71
e 10 74
e 10 75
e 10 78
e 10 82
e 10 83
e 10 86
e 10 88
e 10 90
e 10 91
e 10 93
e 10 94
e 10 95
e 10 96
e 10 97
e 10 98
e 10 100
e 11 12
e 11 13
e 11 14
e 11 16
e 11 19
e 11 22
e 11 23
e 11 24
e 11 25
e 11 26
e 11 27
e 11 29
e 11 30
e 11 31
e 11 34
e 11 36
e 11 37
e 11 38
e 11 39
e 11 40
e 11 43
e 11 44
e 11 49
e 11 50
e 11 51
e 11 53
e 11 57
e 11 59
e 11 61
e 11 63
e 11 64
e 11 68
e 11 70
e 11 71
e 11 72
e 11 74
e 11 75
e 11 77
e 11 80
e 11 81
e 11 82
e 11 85
e 11 87
e 11 90
e 11 92
e 11 93
e 11 95
e 11 100
e 12 14
e 12 15
e 12 17
e 12 18
e 12 20
e 12 23
e 12 24
e 12 25
e 12 28
e 12 29
e 12 31
e 12 32
e 12 36
e 12 37
e 12 41
e 12 42
e 12 44
e 12 46
e 12 47
e 12 48
e 12 49
e 12 50
e 12 51
e 12 52
e 12 55
e 12 58
e 12 60
e 12 69
e 12 70
e 12 73
e 12 74
e 12 75
e 12 78
e 12 80
e 12 82
e 12 84
e 12 85
e 12 86
e 12 87
e 12 90
e 12 92
e 12 93
e 12 94
e 12 95
e 12 96
e 12 97
e 12 99
e 12 100
e 13 16
e 13 18
e 13 19
e 13 20
e 13 21
e 13 23
e 13 24
e 13 25
e 13 26
e 13 27
e 13 30
e 13 31
e 13 32
e 13 35
e 13 36
e 13 39
e 13 40
e 13 46
e 13 47
e 13 48
e 13 49
e 13 50
e 13 51
e 13 52
e 13 53
e 13 55
e 13 60
e 13 61
e 13 62
e 13 65
e 13 68
e 13 71
e 13 74
e 13 75
e 13 79
e 13 80
e 13 81
e 13 83
e 13 85
e 13 89
e 13 92
e 13 93
e 13 94
e 13 95
e 13 98
e 13 99
e 13 100
e 14 15
e 14 18
e 14 20
e 14 23
e 14 24
e 14 25
e 14 26
e 14 29
e 14 31
e 14 32
e 14 33
e 14 35
e 14 36
e 14 37
e 14 38
e 14 39
e 14 40
e 14 41
e 14 43
e 14 45
e 14 46
e 14 48
e 14 52
e 14 54
e 14 56
e 14 58
e 14 59
e 14 61
e 14 64
e 14 65
e 14 66
e 14 69
e 14 73
e 14 79
e 14 81
e 14 83
e 14 84
e 14 85
e 14 86
e 14 90
e 14 91
e 14 93
e 14 95
e 14 96
e 14 97
e 14 100
e 15 16
e 15 17
e 15 18
e 15 19
e 15 21
e 15 22
e 15 24
e 15 25
e 15 29
e 15 32
e 15 35
e 15 36
e 15 37
e 15 38
e 15 39
e 15 40
e 15 41
e 15 42
e 15 46
e 15 48
e 15 49
e 15 50
e 15 52
e 15 53
e 15 55
e 15 57
e 15 60
e 15 61
e 15 66
e 15 67
e 15 68
e 15 69
e 15 71
e 15 72
e 15 73
e 15 74
e 15 78
e 15 82
e 15 83
e 15 86
e 15 92
e 15 93
e 15 98
e 15 100
e 16 20
e 16 22
e 16 27
e 16 28
e 16 29
e 16 31
e 16 33
e 16 35
e 16 36
e 16 37
e 16 39
e 16 42
e 16 44
e 16 45
e 16 47
e 16 48
e 16 50
e 16 52
e 16 53
e 16 54
e 16 56
e 16 57
e 16 58
e 16 61
e 16 63
e 16 64
e 16 65
e 16 67
e 16 70
e 16 71
e 16 74
e 16 76
e 16 77
e 16 80
e 16 81
e 16 83
e 16 84
e 16 86
e 16 88
e 16 89
e 16 90
e 16 92
e 16 94
e 16 97
e 16 98
e 16 100
e 17 19
e 17 20
e 17 21
e 17 24
e 17 25
e 17 29
e 17 30
e 17 31
e 17 32
e 17 34
e 17 35
e 17 36
e 17 38
e 17 39
e 17 40
e 17 43
e 17 44
e 17 45
e 17 46
e 17 47
e 17 50
e 17 55
e 17 59
e 17 65
e 17 67
e 17 68
e 17 69
e 17 71
e 17 77
e 17 78
e 17 79
e 17 80
e 17 83
e 17 84
e 17 85
e 17 88
e 17 89
e 17 92
e 17 93
e 17 94
e 17 95
e 17 96
e 17 97
e 17 98
e 18 21
e 18 23
e 18 24
e 18 27
e 18 29
e 18 31
e 18 32
e 18 33
e 18 35
e 18 36
e 18 38
e 18 39
e 18 40
e 18 41
e 18 43
e 18 47
e 18 48
e 18 49
e 18 50
e 18 55
e 18 57
e 18 58
e 18 59
e 18 60
e 18 62
e 18 64
e 18 69
e 18 70
e 18 73
e 18 76
e 18 78
e 18 81
e 18 82
e 18 83
e 18 85
e 18 86
e 18 87
e 18 89
e 18 91
e 18 98
e 18 99
e 19 20
e 19 23
e 19 24
e 19 26
e 19 30
e 19 33
e 19 34
e 19 36
e 19 38
e 19 39
e 19 40
e 19 41
e 19 46
e 19 47
e 19 48
e 19 49
e 19 52
e 19 56
e 19 57
e 19 60
e 19 61
e 19 62
e 19 63
e 19 67
e 19 68
e 19 69
e 19 71
e 19 72
e 19 73
e 19 74
e 19 76
e 19 77
e 19 82
e 19 83
e 19 84
e 19 88
e 19 89
e 19 91
e 19 92
e 19 93
e 19 94
e 19 99
e 20 21
e 20 22
e 20 23
e 20 26
e 20 27
e 20 28
e 20 31
e 20 32
e 20 35
e 20 36
e 20 38
e 20 41
e 20 43
e 20 44
e 20 47
e 20 48
e 20 49
e 20 51
e 20 53
e 20 54
e 20 56
e 20 58
e 20 59
e 20 60
e 20 63
e 20 66
e 20 67
e 20 68
e 20 75
e 20 79
e 20 81
e 20 83
e 20 84
e 20 87
e 20 88
e 20 90
e 20 92
e 20 94
e 20 97
e 20 100
e 21 22
e 21 23
e 21 24
e 21 25
e 21 28
e 21 30
e 21 31
e 21 33
e 21 38
e 21 39
e 21 40
e 21 41
e 21 43
e 21 44
e 21 45
e 21 46
e 21 48
e 21 51
e 21 53
e 21 54
e 21 56
e 21 57
e 21 60
e 21 61
e 21 62
e 21 63
e 21 64
e 21 66
e 21 68
e 21 72
e 21 73
e 21 75
e 21 76
e 21 80
e 21 82
e 21 86
e 21 88
e 21 94
e 21 96
e 21 100
e 22 25
e 22 26
e 22 28
e 22 30
e 22 33
e 22 34
e 22 35
e 22 36
e 22 37
e 22 42
e 22 45
e 22 47
e 22 48
e 22 50
e 22 51
e 22 52
e 22 53
e 22 54
e 22 55
e 22 57
e 22 61
e 22 62
e 22 63
e 22 65
e 22 66
e 22 70
e 22 71
e 22 72
e 22 76
e 22 77
e 22 79
e 22 80
e 22 81
e 22 82
e 22 87
e 22 88
e 22 89
e 22 94
e 22 96
e 22 100
e 23 24
e 23 25
e 23 28
e 23 31
e 23 32
e 23 40
e 23 41
e 23 43
e 23 47
e 23 48
e 23 51
e 23 53
e 23 54
e 23 55
e 23 56
e 23 58
e 23 62
e 23 63
e 23 65
e 23 66
e 23 68
e 23 70
e 23 71
e 23 76
e 23 79
e 23 80
e 23 81
e 23 82
e 23 83
e 23 84
e 23 85
e 23 86
e 23 89
e 23 90
e 23 92
e 23 93
e 23 96
e 23 97
e 23 98
e 24 25
e 24 27
e 24 28
e 24 29
e 24 30
e 24 33
e 24 34
e 24 35
e 24 42
e 24 45
e 24 47
e 24 48
e 24 50
e 24 53
e 24 54
e 24 55
e 24 56
e 24 57
e 24 59
e 24 61
e 24 65
e 24 66
e 24 67
e 24 72
e 24 74
e 24 76
e 24 83
e 24 84
e 24 89
e 24 90
e 24 91
e 24 93
e 24 95
e 24 96
e 24 98
e 24 99
e 24 100
e 25 26
e 25 32
e 25 33
e 25 35
e 25 36
e 25 39
e 25 40
e 25 41
e 25 42
e 25 44
e 25 46
e 25 49
e 25 50
e 25 52
e 25 53
e 25 55
e 25 57
e 25 58
e 25 60
e 25 63
e 25 65
e 25 67
e 25 73
e 25 75
e 25 77
e 25 79
e 25 81
e 25 82
e 25 85
e 25 87
e 25 89
e 25 90
e 25 91
e 25 95
e 25 97
e 25 100
e 26 27
e 26 29
e 26 31
e 26 32
e 26 33
e 26 36
e 26 37
e 26 39
e 26 40
e 26 41
e 26 42
e 26 43
e 26 46
e 26 47
e 26 48
e 26 49
e 26 50
e 26 51
e 26 54
e 26 55
e 26 57
e 26 58
e 26 61
e 26 62
e 26 63
e 26 65
e 26 66
e 26 68
e 26 70
e 26 71
e 26 73
e 26 76
e 26 80
e 26 83
e 26 84
e 26 85
e 26 86
e 26 88
e 26 91
e 26 94
e 26 95
e 26 99
e 27 28
e 27 29
e 27 30
e 27 35
e 27 36
e 27 39
e 27 44
e 27 47
e 27 49
e 27 52
e 27 53
e 27 56
e 27 57
e 27 60
e 27 61
e 27 62
e 27 67
e 27 70
e 27 72
e 27 73
e 27 74
e 27 76
e 27 77
e 27 79
e 27 81
e 27 82
e 27 83
e 27 84
e 27 85
e 27 86
e 27 88
e 27 89
e 27 90
e 27 91
e 27 92
e 27 93
e 27 94
e 27 95
e 27 98
e 28 30
e 28 31
e 28 35
e 28 39
e 28 40
e 28 41
e 28 45
e 28 49
e 28 50
e 28 52
e 28 53
e 28 54
e 28 55
e 28 56
e 28 59
e 28 61
e 28 64
e 28 65
e 28 66
e 28 68
e 28 69
e 28 70
e 28 71
e 28 72
e 28 74
e 28 77
e 28 81
e 28 82
e 28 85
e 28 87
e 28 88
e 28 90
e 28 91
e 28 92
e 28 93
e 29 34
e 29 35
e 29 36
e 29 37
e 29 39
e 29 40
e 29 44
e 29 45
e 29 46
e 29 47
e 29 48
e 29 50
e 29 51
e 29 53
e 29 55
e 29 56
e 29 61
e 29 62
e 29 64
e 29 65
e 29 66
e 29 67
e 29 68
e 29 73
e 29 74
e 29 75
e 29 76
e 29 82
e 29 83
e 29 85
e 29 88
e 29 89
e 29 91
e 29 96
e 29 97
e 29 98
e 30 33
e 30 37
e 30 38
e 30 39
e 30 41
e 30 43
e 30 45
e 30 49
e 30 50
e 30 53
e 30 55
e 30 56
e 30 57
e 30 59
e 30 61
e 30 62
e 30 65
e 30 68
e 30 69
e 30 70
e 30 71
e 30 73
e 30 74
e 30 75
e 30 78
e 30 79
e 30 80
e 30 84
e 30 86
e 30 87
e 30 90
e 30 91
e 30 93
e 30 99
e 30 100
e 31 32
e 31 34
e 31 36
e 31 37
e 31 38
e 31 41
e 31 44
e 31 46
e 31 47
e 31 51
e 31 52
e 31 53
e 31 54
e 31 55
e 31 60
e 31 62
e 31 64
e 31 67
e 31 68
e 31 73
e 31 74
e 31 75
e 31 80
e 31 82
e 31 84
e 31 85
e 31 86
e 31 87
e 31 91
e 31 92
e 31 93
e 31 95
e 31 96
e 31 97
e 31 100
e 32 33
e 32 36
e 32 37
e 32 38
e 32 40
e 32 42
e 32 43
e 32 45
e 32 48
e 32 51
e 32 58
e 32 61
e 32 62
e 32 66
e 32 67
e 32 70
e 32 72
e 32 73
e 32 75
e 32 76
e 32 77
e 32 79
e 32 80
e 32 81
e 32 83
e 32 91
e 32 94
e 32 95
e 32 96
e 32 97
e 32 98
e 32 99
e 32 100
e 33 34
e 33 35
e 33 38
e 33 40
e 33 43
e 33 45
e 33 46
e 33 48
e 33 50
e 33 51
e 33 52
e 33 58
e 33 64
e 33 65
e 33 66
e 33 67
e 33 71
e 33 72
e 33 74
e 33 77
e 33 78
e 33 80
e 33 81
e 33 83
e 33 84
e 33 85
e 33 87
e 33 88
e 33 89
e 33 91
e 33 92
e 33 96
e 34 37
e 34 38
e 34 39
e 34 41
e 34 43
e 34 45
e 34 46
e 34 47
e 34 48
e 34 49
e 34 50
e 34 52
e 34 53
e 34 59
e 34 60
e 34 61
e 34 66
e 34 68
e 34 69
e 34 72
e 34 73
e 34 75
e 34 77
e 34 80
e 34 81
e 34 82
e 34 83
e 34 84
e 34 85
e 34 86
e 34 89
e 34 91
e 34 95
e 34 99
e 34 100
e 35 37
e 35 39
e 35 40
e 35 41
e 35 43
e 35 44
e 35 46
e 35 47
e 35 48
e 35 49
e 35 51
e 35 56
e 35 57
e 35 58
e 35 60
e 35 62
e 35 63
e 35 66
e 35 69
e 35 77
e 35 79
e 35 82
e 35 83
e 35 85
e 35 86
e 35 93
e 35 94
e 35 99
e 36 37
e 36 38
e 36 39
e 36 40
e 36 42
e 36 43
e 36 55
e 36 57
e 36 58
e 36 59
e 36 61
e 36 64
e 36 65
e 36 66
e 36 67
e 36 71
e 36 72
e 36 73
e 36 74
e 36 79
e 36 80
e 36 83
e 36 84
e 36 87
e 36 88
e 36 89
e 36 91
e 36 96
e 36 97
e 36 98
e 37 38
e 37 41
e 37 47
e 37 53
e 37 54
e 37 57
e 37 59
e 37 61
e 37 62
e 37 63
e 37 64
e 37 65
e 37 66
e 37 67
e 37 68
e 37 69
e 37 70
e 37 72
e 37 74
e 37 75
e 37 76
e 37 79
e 37 80
e 37 81
e 37 88
e 37 89
e 37 90
e 37 92
e 37 98
e 38 40
e 38 44
e 38 46
e 38 47
e 38 49
e 38 52
e 38 53
e 38 54
e 38 59
e 38 61
e 38 63
e 38 64
e 38 65
e 38 66
e 38 67
e 38 70
e 38 71
e 38 73
e 38 74
e 38 76
e 38 78
e 38 80
e 38 81
e 38 82
e 38 83
e 38 85
e 38 86
e 38 87
e 38 88
e 38 91
e 39 40
e 39 42
e 39 44
e 39 46
e 39 51
e 39 52
e 39 56
e 39 57
e 39 58
e 39 59
e 39 64
e 39 66
e 39 67
e 39 68
e 39 71
e 39 75
e 39 76
e 39 77
e 39 78
e 39 79
e 39 83
e 39 84
e 39 86
e 39 88
e 39 92
e 39 93
e 39 94
e 39 95
e 40 43
e 40 46
e 40 47
e 40 49
e 40 50
e 40 52
e 40 55
e 40 57
e 40 58
e 40 59
e 40 61
e 40 68
e 40 69
e 40 70
e 40 72
e 40 73
e 40 77
e 40 78
e 40 81
e 40 82
e 40 83
e 40 87
e 40 92
e 40 94
e 40 95
e 40 96
e 40 99
e 41 42
e 41 44
e 41 45
e 41 47
e 41 48
e 41 49
e 41 50
e 41 51
e 41 56
e 41 57
e 41 59
e 41 62
e 41 64
e 41 65
e 41 67
e 41 68
e 41 70
e 41 71
e 41 73
e 41 74
e 41 75
e 41 83
e 41 84
e 41 85
e 41 87
e 41 91
e 41 92
e 41 95
e 41 97
e 41 98
e 42 44
e 42 45
e 42 50
e 42 52
e 42 53
e 42 54
e 42 55
e 42 58
e 42 59
e 42 60
e 42 61
e 42 62
e 42 64
e 42 65
e 42 66
e 42 67
e 42 68
e 42 69
e 42 70
e 42 71
e 42 72
e 42 73
e 42 74
e 42 80
e 42 83
e 42 87
e 42 89
e 42 90
e 42 91
e 42 93
e 42 94
e 42 96
e 42 100
e 43 44
e 43 45
e 43 46
e 43 51
e 43 52
e 43 54
e 43 57
e 43 58
e 43 59
e 43 60
e 43 63
e 43 65
e 43 67
e 43 70
e 43 72
e 43 76
e 43 78
e 43 79
e 43 81
e 43 82
e 43 86
e 43 87
e 43 89
e 43 91
e 43 93
e 43 98
e 44 48
e 44 49
e 44 51
e 44 52
e 44 53
e 44 54
e 44 55
e 44 57
e 44 58
e 44 60
e 44 61
e 44 62
e 44 64
e 44 66
e 44 71
e 44 75
e 44 76
e 44 79
e 44 84
e 44 89
e 44 90
e 44 91
e 44 94
e 44 95
e 44 97
e 45 46
e 45 51
e 45 52
e 45 53
e 45 54
e 45 55
e 45 56
e 45 57
e 45 58
e 45 61
e 45 64
e 45 66
e 45 67
e 45 69
e 45 72
e 45 75
e 45 77
e 45 78
e 45 80
e 45 82
e 45 85
e 45 89
e 45 90
e 45 94
e 45 97
e 45 99
e 45 100
e 46 47
e 46 48
e 46 49
e 46 50
e 46 56
e 46 57
e 46 58
e 46 60
e 46 61
e 46 62
e 46 63
e 46 65
e 46 68
e 46 73
e 46 76
e 46 80
e 46 86
e 46 88
e 46 90
e 46 92
e 46 93
e 46 95
e 46 99
e 46 100
e 47 51
e 47 54
e 47 56
e 47 57
e 47 59
e 47 60
e 47 62
e 47 64
e 47 65
e 47 68
e 47 70
e 47 72
e 47 73
e 47 77
e 47 78
e 47 79
e 47 87
e 47 88
e 47 89
e 47 90
e 47 91
e 47 92
e 47 93
e 47 96
e 48 49
e 48 51
e 48 52
e 48 54
e 48 58
e 48 61
e 48 62
e 48 63
e 48 65
e 48 67
e 48 68
e 48 71
e 48 72
e 48 73
e 48 74
e 48 75
e 48 84
e 48 85
e 48 88
e 48 91
e 48 95
e 48 99
e 49 53
e 49 56
e 49 57
e 49 60
e 49 61
e 49 63
e 49 64
e 49 65
e 49 66
e 49 71
e 49 72
e 49 73
e 49 76
e 49 80
e 49 83
e 49 84
e 49 86
e 49 87
e 49 89
e 49 92
e 49 95
e 49 96
e 50 52
e 50 53
e 50 54
e 50 55
e 50 56
e 50 59
e 50 60
e 50 62
e 50 63
e 50 66
e 50 69
e 50 75
e 50 76
e 50 79
e 50 82
e 50 84
e 50 85
e 50 86
e 50 88
e 50 90
e 50 97
e 50 99
e 50 100
e 51 53
e 51 57
e 51 63
e 51 64
e 51 65
e 51 67
e 51 68
e 51 69
e 51 71
e 51 73
e 51 76
e 51 77
e 51 78
e 51 83
e 51 84
e 51 86
e 51 89
e 51 91
e 51 94
e 51 96
e 51 97
e 51 99
e 52 54
e 52 55
e 52 58
e 52 61
e 52 62
e 52 65
e 52 67
e 52 70
e 52 71
e 52 73
e 52 74
e 52 76
e 52 81
e 52 83
e 52 84
e 52 87
e 52 88
e 52 92
e 52 95
e 52 96
e 53 54
e 53 56
e 53 58
e 53 59
e 53 60
e 53 63
e 53 64
e 53 69
e 53 71
e 53 72
e 53 73
e 53 74
e 53 76
e 53 81
e 53 84
e 53 85
e 53 91
e 53 93
e 53 94
e 53 95
e 53 97
e 53 98
e 54 56
e 54 57
e 54 59
e 54 60
e 54 65
e 54 66
e 54 69
e 54 70
e 54 73
e 54 75
e 54 76
e 54 78
e 54 79
e 54 81
e 54 89
e 54 90
e 54 92
e 54 93
e 54 94
e 54 95
e 54 100
e 55 56
e 55 59
e 55 61
e 55 63
e 55 64
e 55 66
e 55 67
e 55 68
e 55 73
e 55 75
e 55 77
e 55 78
e 55 79
e 55 81
e 55 84
e 55 85
e 55 86
e 55 87
e 55 92
e 55 93
e 55 96
e 55 98
e 56 62
e 56 64
e 56 67
e 56 68
e 56 69
e 56 73
e 56 74
e 56 75
e 56 77
e 56 80
e 56 81
e 56 82
e 56 83
e 56 85
e 56 86
e 56 87
e 56 88
e 56 92
e 56 93
e 56 96
e 56 98
e 57 59
e 57 60
e 57 62
e 57 65
e 57 68
e 57 70
e 57 75
e 57 79
e 57 80
e 57 82
e 57 86
e 57 92
e 57 95
e 57 98
e 57 99
e 57 100
e 58 61
e 58 63
e 58 68
e 58 69
e 58 74
e 58 75
e 58 76
e 58 78
e 58 80
e 58 81
e 58 82
e 58 83
e 58 86
e 58 87
e 58 88
e 58 89
e 58 90
e 58 93
e 58 95
e 58 97
e 59 60
e 59 62
e 59 63
e 59 64
e 59 66
e 59 68
e 59 70
e 59 71
e 59 74
e 59 75
e 59 77
e 59 80
e 59 85
e 59 90
e 59 91
e 59 95
e 59 97
e 59 98
e 59 99
e 60 61
e 60 63
e 60 65
e 60 67
e 60 69
e 60 70
e 60 72
e 60 74
e 60 76
e 60 77
e 60 79
e 60 82
e 60 86
e 60 95
e 60 97
e 60 98
e 60 99
e 61 62
e 61 68
e 61 71
e 61 73
e 61 74
e 61 76
e 61 77
e 61 78
e 61 82
e 61 88
e 61 92
e 61 95
e 62 64
e 62 67
e 62 69
e 62 72
e 62 76
e 62 78
e 62 80
e 62 81
e 62 82
e 62 90
e 62 91
e 62 96
e 62 98
e 62 100
e 63 64
e 63 66
e 63 68
e 63 70
e 63 71
e 63 73
e 63 74
e 63 77
e 63 81
e 63 82
e 63 84
e 63 85
e 63 86
e 63 88
e 63 89
e 63 96
e 63 99
e 64 65
e 64 66
e 64 67
e 64 74
e 64 78
e 64 80
e 64 84
e 64 86
e 64 87
e 64 91
e 64 92
e 64 93
e 64 94
e 64 97
e 64 99
e 64 100
e 65 69
e 65 70
e 65 72
e 65 79
e 65 81
e 65 83
e 65 85
e 65 86
e 65 91
e 65 94
e 65 96
e 66 68
e 66 69
e 66 70
e 66 71
e 66 75
e 66 77
e 66 78
e 66 79
e 66 81
e 66 95
e 66 97
e 66 100
e 67 68
e 67 78
e 67 80
e 67 82
e 67 83
e 67 84
e 67 85
e 67 88
e 67 89
e 67 92
e 67 95
e 67 97
e 67 99
e 68 77
e 68 78
e 68 83
e 68 86
e 68 89
e 68 95
e 68 96
e 68 97
e 68 99
e 68 100
e 69 70
e 69 71
e 69 73
e 69 76
e 69 78
e 69 79
e 69 80
e 69 84
e 69 85
e 69 86
e 69 87
e 69 89
e 69 90
e 69 91
e 69 92
e 69 93
e 69 97
e 70 72
e 70 73
e 70 74
e 70 78
e 70 79
e 70 81
e 70 82
e 70 84
e 70 86
e 70 87
e 70 94
e 70 95
e 71 76
e 71 77
e 71 79
e 71 80
e 71 85
e 71 88
e 71 90
e 71 92
e 71 96
e 71 98
e 71 100
e 72 74
e 72 75
e 72 76
e 72 77
e 72 78
e 72 80
e 72 90
e 72 91
e 72 92
e 72 93
e 72 94
e 72 98
e 72 99
e 73 77
e 73 80
e 73 81
e 73 82
e 73 83
e 73 87
e 73 88
e 73 91
e 73 98
e 74 76
e 74 77
e 74 78
e 74 79
e 74 80
e 74 87
e 74 92
e 74 93
e 74 95
e 74 96
e 74 98
e 75 77
e 75 79
e 75 81
e 75 84
e 75 86
e 75 87
e 75 88
e 75 90
e 75 96
e 75 98
e 76 81
e 76 86
e 76 87
e 76 88
e 76 90
e 76 91
e 76 94
e 76 98
e 76 100
e 77 78
e 77 79
e 77 84
e 77 87
e 77 88
e 77 92
e 77 94
e 77 97
e 77 99
e 78 79
e 78 83
e 78 87
e 78 89
e 78 90
e 78 93
e 78 94
e 78 95
e 78 96
e 78 97
e 79 81
e 79 84
e 79 85
e 79 91
e 79 92
e 79 94
e 79 95
e 79 98
e 79 99
e 80 81
e 80 85
e 80 87
e 80 89
e 80 97
e 80 98
e 80 99
e 81 85
e 81 86
e 81 87
e 81 98
e 81 100
e 82 83
e 82 90
e 82 91
e 82 94
e 82 96
e 82 97
e 83 85
e 83 88
e 83 95
e 84 86
e 84 90
e 84 95
e 85 87
e 85 88
e 85 96
e 85 98
e 86 88
e 86 90
e 86 91
e 86 94
e 87 88
e 87 89
e 87 91
e 87 96
e 87 97
e 87 98
e 88 89
e 88 90
e 88 91
e 88 93
e 89 92
e 89 93
e 89 96
e 89 97
e 90 93
e 90 99
e 90 100
e 91 96
e 91 99
e 92 93
e 92 94
e 92 96
e 92 98
e 93 98
e 93 99
e 93 100
e 94 96
e 94 97
e 94 100
e 95 100
e 96 99
e 97 99
n 21 3
n 22 3
n 49 1
n 54 3
n 74 4
n 84 1
n 91 5
n 97 2
n 98 4
n 100 3
